cases/tiny_case.lp
max: -500 X0 -500 X1 -500 X2 -500 X3 -500 X4 -500 X5 -500 X6 -206 Y0c0 -160 Y0c1 -57 Y0c2 +214 Y0c3 -204 Y0c4 -250 Y0c5 -475 Y0c6 -12 Y1c0 +200 Y1c1 +294 Y1c2 +316 Y1c3 +192 Y1c4 +144 Y1c5 -146 Y1c6 +94 Y2c0 +151 Y2c1 +50 Y2c2 -333 Y2c3 +127 Y2c4 -92 Y2c5 +449 Y2c6 +236 Y3c0 +134 Y3c1 +56 Y3c2 -325 Y3c3 +62 Y3c4 -189 Y3c5 +369 Y3c6 +330 Y4c0 +11 Y4c1 +13 Y4c2 -247 Y4c3 -102 Y4c4 -346 Y4c5 -6 Y4c6 +4 Y5c0 +151 Y5c1 +48 Y5c2 -318 Y5c3 +167 Y5c4 -11 Y5c5 +325 Y5c6 -185 Y6c0 -223 Y6c1 -126 Y6c2 +56 Y6c3 -289 Y6c4 -381 Y6c5 -500 Y6c6 +254 Y7c0 -70 Y7c1 -84 Y7c2 -366 Y7c3 -180 Y7c4 -433 Y7c5 -11 Y7c6 -12 Y8c0 -17 Y8c1 +80 Y8c2 +185 Y8c3 -85 Y8c4 -195 Y8c5 -303 Y8c6 -84 Y9c0 +160 Y9c1 +241 Y9c2 +320 Y9c3 +180 Y9c4 +195 Y9c5 -185 Y9c6;

Y0c0 <= X0;
Y0c1 <= X1;
Y0c2 <= X2;
Y0c3 <= X3;
Y0c4 <= X4;
Y0c5 <= X5;
Y0c6 <= X6;
Y1c0 <= X0;
Y1c1 <= X1;
Y1c2 <= X2;
Y1c3 <= X3;
Y1c4 <= X4;
Y1c5 <= X5;
Y1c6 <= X6;
Y2c0 <= X0;
Y2c1 <= X1;
Y2c2 <= X2;
Y2c3 <= X3;
Y2c4 <= X4;
Y2c5 <= X5;
Y2c6 <= X6;
Y3c0 <= X0;
Y3c1 <= X1;
Y3c2 <= X2;
Y3c3 <= X3;
Y3c4 <= X4;
Y3c5 <= X5;
Y3c6 <= X6;
Y4c0 <= X0;
Y4c1 <= X1;
Y4c2 <= X2;
Y4c3 <= X3;
Y4c4 <= X4;
Y4c5 <= X5;
Y4c6 <= X6;
Y5c0 <= X0;
Y5c1 <= X1;
Y5c2 <= X2;
Y5c3 <= X3;
Y5c4 <= X4;
Y5c5 <= X5;
Y5c6 <= X6;
Y6c0 <= X0;
Y6c1 <= X1;
Y6c2 <= X2;
Y6c3 <= X3;
Y6c4 <= X4;
Y6c5 <= X5;
Y6c6 <= X6;
Y7c0 <= X0;
Y7c1 <= X1;
Y7c2 <= X2;
Y7c3 <= X3;
Y7c4 <= X4;
Y7c5 <= X5;
Y7c6 <= X6;
Y8c0 <= X0;
Y8c1 <= X1;
Y8c2 <= X2;
Y8c3 <= X3;
Y8c4 <= X4;
Y8c5 <= X5;
Y8c6 <= X6;
Y9c0 <= X0;
Y9c1 <= X1;
Y9c2 <= X2;
Y9c3 <= X3;
Y9c4 <= X4;
Y9c5 <= X5;
Y9c6 <= X6;

+Y0c0 +Y0c1 +Y0c2 +Y0c3 +Y0c4 +Y0c5 +Y0c6 <= 1;
+Y1c0 +Y1c1 +Y1c2 +Y1c3 +Y1c4 +Y1c5 +Y1c6 <= 1;
+Y2c0 +Y2c1 +Y2c2 +Y2c3 +Y2c4 +Y2c5 +Y2c6 <= 1;
+Y3c0 +Y3c1 +Y3c2 +Y3c3 +Y3c4 +Y3c5 +Y3c6 <= 1;
+Y4c0 +Y4c1 +Y4c2 +Y4c3 +Y4c4 +Y4c5 +Y4c6 <= 1;
+Y5c0 +Y5c1 +Y5c2 +Y5c3 +Y5c4 +Y5c5 +Y5c6 <= 1;
+Y6c0 +Y6c1 +Y6c2 +Y6c3 +Y6c4 +Y6c5 +Y6c6 <= 1;
+Y7c0 +Y7c1 +Y7c2 +Y7c3 +Y7c4 +Y7c5 +Y7c6 <= 1;
+Y8c0 +Y8c1 +Y8c2 +Y8c3 +Y8c4 +Y8c5 +Y8c6 <= 1;
+Y9c0 +Y9c1 +Y9c2 +Y9c3 +Y9c4 +Y9c5 +Y9c6 <= 1;

bin X0,X1,X2,X3,X4,X5,X6;
bin Y0c0,Y0c1,Y0c2,Y0c3,Y0c4,Y0c5,Y0c6;
bin Y1c0,Y1c1,Y1c2,Y1c3,Y1c4,Y1c5,Y1c6;
bin Y2c0,Y2c1,Y2c2,Y2c3,Y2c4,Y2c5,Y2c6;
bin Y3c0,Y3c1,Y3c2,Y3c3,Y3c4,Y3c5,Y3c6;
bin Y4c0,Y4c1,Y4c2,Y4c3,Y4c4,Y4c5,Y4c6;
bin Y5c0,Y5c1,Y5c2,Y5c3,Y5c4,Y5c5,Y5c6;
bin Y6c0,Y6c1,Y6c2,Y6c3,Y6c4,Y6c5,Y6c6;
bin Y7c0,Y7c1,Y7c2,Y7c3,Y7c4,Y7c5,Y7c6;
bin Y8c0,Y8c1,Y8c2,Y8c3,Y8c4,Y8c5,Y8c6;
bin Y9c0,Y9c1,Y9c2,Y9c3,Y9c4,Y9c5,Y9c6;
