cases/tiny_case.txt
500
500
1
7
10

0 326 341 658 437 688 363 
326 0 104 484 113 363 346 
341 104 0 386 170 367 443 
658 484 386 0 488 475 829 
437 113 170 488 0 259 386 
688 363 367 475 259 0 617 
363 346 443 829 386 617 0 

1 1 1 1 1 1 1 1 1 1 
706 512 406 264 170 496 685 246 512 584 
660 300 349 366 489 349 723 570 517 340 
557 206 450 444 487 452 626 584 420 259 
286 184 833 825 747 818 444 866 315 180 
704 308 373 438 602 333 789 680 585 320 
750 356 592 689 846 511 881 933 695 305 
975 646 51 131 506 175 1000 511 803 685 
